14
-1 9 16 35 51 49 19 56 98 3 24 8 44 9
89 -1 95 85 93 43 23 87 14 3 48 58 18 80
96 98 -1 89 98 9 57 72 22 38 92 38 79 90
57 58 91 -1 88 56 11 2 34 72 55 28 46 62
86 75 33 69 -1 44 16 81 98 22 51 21 99 57
76 92 89 75 12 -1 3 69 61 88 1 89 55 23
2 85 82 85 88 26 -1 57 32 32 69 54 21 89
76 29 68 92 25 55 34 -1 41 12 45 60 18 53
39 23 79 96 87 29 49 37 -1 49 93 95 97 16
86 5 88 82 55 34 14 1 16 -1 86 63 13 55
85 53 12 8 32 45 13 56 21 58 -1 82 81 44
96 22 29 61 35 50 73 66 44 59 92 -1 53 24
54 10 45 49 86 13 74 22 68 18 87 5 -1 91
2 25 77 14 14 24 34 74 72 59 33 70 87 -1